NAME: ALEX48
TYPE: TSP
COMMENT: 48-city problem ALEXANDRE 
DIMENSION:  48
EDGE_WEIGHT_TYPE : EUC_2D
NODE_COORD_SECTION
1 40 10
2 10 40
3 40 40    
4 20 20    
5 30 30    
6 10 10    
7 30 10    
8 20 40    
9 40 20     
10 10 30    
11 20 10    
12 20 30    
13 30 20      
14 30 40      
15 10 20    
16 40 30
17 50 10
18 50 40
19 50 20
20 50 30
21 90 40
22 90 10
23 90 20    
24 90 30    
25 60 30    
26 60 10    
27 60 20    
28 60 40    
29 80 20     
30 80 30    
31 80 10    
32 80 40    
33 70 20      
34 70 40      
35 70 10    
36 70 30     
37 100 10
38 100 40
39 100 30
40 100 20
41 120 10
42 120 40
43 120 30    
44 120 20    
45 110 30    
46 110 10    
47 110 20    
48 110 40    
EOF
